! PBE def2-SVP def2/J RIJCOSX TightSCF D4 EnGrad CHELPG 
%maxcore 4000

%pal
  nprocs 8
end

%scf
  MaxIter 50
  DIISStart 3
  SOSCFStart 8
  # 金属体系有时加点电子温度有利于收敛（单位 K）
end

%output
  PrintLevel Normal
  Print[ P_OrbEn ] 2
  Print[ P_Mulliken ] 1
  Print[ P_Loewdin ] 1
  Print[ P_Mayer ] 1
  Print[ P_Hirshfeld ] 1
  Print[ P_MBIS ] 1
end

%elprop
  Dipole true
  Quadrupole true
  Polar true
end
 
*xyz 0 1 
Al   1.65191420786455 -2.7205062041206025 0.09106999639351876
Zn   -0.7900979599711329 2.7387485039569173 0.06354460250106367
Zn   1.7201129079022617 -0.1501466216589359 0.056891179186126704
Al   -0.8141437052473341 0.06122667136554748 0.08015432637772779
*
