! UKS PBE def2-SVP def2/J RIJCOSX TightSCF D4 EnGrad CHELPG 
%maxcore 6000

%pal
  nprocs 16
end

%scf
  MaxIter 50
  DIISStart 3
  SOSCFStart 8
  # 金属体系有时加点电子温度有利于收敛（单位 K）
end

%output
  PrintLevel Normal
  Print[ P_OrbEn ] 2
  Print[ P_Mulliken ] 1
  Print[ P_Loewdin ] 1
  Print[ P_Mayer ] 1
  Print[ P_Hirshfeld ] 1
  Print[ P_MBIS ] 1
end

%elprop
  Dipole true
  Quadrupole true
  Polar true
end
 
*xyz 0 2 
Al   0.5731808543205261 0.7138946652412415 0.234403595328331
Fe   -0.16298873722553253 0.17750133574008942 0.7479106187820435
Cr   0.5996357202529907 0.8169717192649841 0.9173805713653564
Ti   -0.027393057942390442 0.17479321360588074 0.04813595116138458
*
