! PBE def2-SVP def2/J RIJCOSX TightSCF D4 EnGrad CHELPG 
%maxcore 4000

%pal
  nprocs 8
end

%scf
  MaxIter 50
  DIISStart 3
  SOSCFStart 8
  # 金属体系有时加点电子温度有利于收敛（单位 K）
end

%output
  PrintLevel Normal
  Print[ P_OrbEn ] 2
  Print[ P_Mulliken ] 1
  Print[ P_Loewdin ] 1
  Print[ P_Mayer ] 1
  Print[ P_Hirshfeld ] 1
  Print[ P_MBIS ] 1
end

%elprop
  Dipole true
  Quadrupole true
  Polar true
end
 
*xyz 0 1 
Na   0.3146752238222287 4.753488434171627 -2.2305194773712906
Cl   2.5953813560185495 -0.5723758319629121 4.371566089756683
*
