! UKS PBE def2-SVP def2/J RIJCOSX TightSCF D4 EnGrad CHELPG 
%maxcore 16

%pal
  nprocs 8
end

%scf
  MaxIter 50
  DIISStart 3
  SOSCFStart 8
  # 金属体系有时加点电子温度有利于收敛（单位 K）
end

%output
  PrintLevel Normal
  Print[ P_OrbEn ] 2
  Print[ P_Mulliken ] 1
  Print[ P_Loewdin ] 1
  Print[ P_Mayer ] 1
  Print[ P_Hirshfeld ] 1
  Print[ P_MBIS ] 1
end

%elprop
  Dipole true
  Quadrupole true
  Polar true
end
 
*xyz 0 2 
Al   -0.11161168017017924 2.8436873511035103 -1.6808254059564565
Zn   1.9047529677405546 0.859513628675516 2.5796680501443117
*
